C12
1.0
2.469371 0.000000 0.000000
-1.234686 2.138538 0.000000
0.000000 0.000000 35.563072
C
12
direct
0.666667 0.333333 0.282577
0.000000 0.000000 0.282535
0.666667 0.333333 0.050798
0.000000 0.000000 0.050756
0.333333 0.666667 0.615911
0.666667 0.333333 0.615868 
0.333333 0.666667 0.384132
0.666667 0.333333 0.384089
0.000000 0.000000 0.949244
0.333333 0.666667 0.949202
0.000000 0.000000 0.717465
0.333333 0.666667 0.717423
