Graphite Lattice
1.0
        2.4410462379         0.0000000000         0.0000000000
       -1.2205231190         2.1140080539         0.0000000000
        0.0000000000         0.0000000000        10.0000000000
   C
    2
Direct
     0.000000000         0.000000000         0.000000000
     0.333333326         0.666666671         0.000000000